 &CONTROL
   calculation     = 'bands' 
   outdir          = './out/' 
   pseudo_dir      = './pseudo/' 
   prefix          = 'aiida' 
   etot_conv_thr   = 1d-07 
   forc_conv_thr   = 1.0d-04
 /
 &SYSTEM
   ibrav           = 0
   nat             = 44
   ntyp            = 4
   ecutwfc         = 90
   ecutrho         = 720
   nbnd            = 100 
   occupations     = 'fixed'
 /
 &ELECTRONS
   electron_maxstep = 200
   conv_thr        = 1d-08
   mixing_beta     = 0.4
 /
 CELL_PARAMETERS angstrom 
    11.911249000    0.000000000    0.000000000 
     0.000000000   11.911249000    0.000000000 
     0.000000000    0.000000000   11.911249000 
ATOMIC_SPECIES
    C   12.01070  C.pbesol-n-kjpaw_psl.1.0.0.UPF 
    H    1.00794  H.pbesol-kjpaw_psl.0.1.UPF
    N   14.00670  N.pbesol-n-kjpaw_psl.0.1.UPF
    O   15.99940  O.pbesol-n-kjpaw_psl.0.1.UPF 
ATOMIC_POSITIONS (crystal)
H        0.751086853   0.901479407   0.677303789
H        0.622155090   0.862147960   0.646609311
H        0.822842968   0.719591339   0.656621754
H        0.764812897   0.683580515   0.441439144
H        0.666295825   0.614820598   0.726520281
H        0.718801793   0.564733732   0.594319233
H        0.519147884   0.581115064   0.599517328
H        0.746017612   0.274268946   0.408373274
H        0.547139062   0.252453506   0.383353235
H        0.699712727   0.162192277   0.198537526
H        0.486355861   0.319227033   0.177856848
H        0.606670700   0.407387466   0.191391665
H        0.514546649   0.464175189   0.387981894
H        0.389373299   0.406773031   0.328150334
H        0.707099832   0.401166595   0.367407329
H        0.354905713   0.645392324   0.145609658
H        0.296597533   0.520241959   0.194604110
H        0.188993656   0.401601202   0.832814238
H        0.363331083   0.321742597   0.788487011
H        0.281374253   0.471864424   0.595043867
H        0.378081595   0.211799742   0.603844029
H        0.271549133   0.157912426   0.694580073
H        0.233291458   0.245203610   0.578844164
H        0.140924914   0.292289731   0.761444307
C        0.739485962   0.740397074   0.620390802
C        0.763202757   0.760876451   0.496012726
C        0.671152663   0.633966989   0.635586017
C        0.602540394   0.274658092   0.311570334
C        0.615910479   0.169165953   0.241422889
C        0.541404395   0.361693255   0.238863248
C        0.471715883   0.444588104   0.308259835
C        0.461519564   0.555026654   0.245898515
C        0.302962016   0.334866708   0.719116910
C        0.347761060   0.428753223   0.646278639
C        0.297309906   0.231073270   0.644174318
N        0.695801071   0.835695498   0.682009130
N        0.711805809   0.318630239   0.343563468
N        0.362970465   0.573373792   0.190590242
N        0.190321645   0.362185190   0.756602589
O        0.782506036   0.852640040   0.456379137
O        0.564327813   0.649242445   0.586827162
O        0.542467868   0.099889573   0.229100471
O        0.539716651   0.621799643   0.242534711
O        0.446433172   0.454948134   0.640955453    
K_POINTS crystal
174
    0.0000000000     0.0000000000     0.0000000000 1
    0.0555555556     0.0000000000     0.0000000000 1
    0.1111111111     0.0000000000     0.0000000000 1
    0.1666666667     0.0000000000     0.0000000000 1
    0.2222222222     0.0000000000     0.0000000000 1
    0.2777777778     0.0000000000     0.0000000000 1
    0.3333333333     0.0000000000     0.0000000000 1
    0.3888888889     0.0000000000     0.0000000000 1
    0.4444444444     0.0000000000     0.0000000000 1
    0.5000000000     0.0000000000     0.0000000000 1
    0.0000000000     0.5000000000     0.0000000000 1
    0.0000000000     0.4444444444     0.0000000000 1
    0.0000000000     0.3888888889     0.0000000000 1
    0.0000000000     0.3333333333     0.0000000000 1
    0.0000000000     0.2777777778     0.0000000000 1
    0.0000000000     0.2222222222     0.0000000000 1
    0.0000000000     0.1666666667     0.0000000000 1
    0.0000000000     0.1111111111     0.0000000000 1
    0.0000000000     0.0555555556     0.0000000000 1
    0.0000000000     0.0000000000     0.0000000000 1
    0.0000000000     0.0000000000     0.0555555556 1
    0.0000000000     0.0000000000     0.1111111111 1
    0.0000000000     0.0000000000     0.1666666667 1
    0.0000000000     0.0000000000     0.2222222222 1
    0.0000000000     0.0000000000     0.2777777778 1
    0.0000000000     0.0000000000     0.3333333333 1
    0.0000000000     0.0000000000     0.3888888889 1
    0.0000000000     0.0000000000     0.4444444444 1
    0.0000000000     0.0000000000     0.5000000000 1
    0.5000000000     0.5000000000     0.5000000000 1
    0.4705882353     0.4705882353     0.4705882353 1
    0.4411764706     0.4411764706     0.4411764706 1
    0.4117647059     0.4117647059     0.4117647059 1
    0.3823529412     0.3823529412     0.3823529412 1
    0.3529411765     0.3529411765     0.3529411765 1
    0.3235294118     0.3235294118     0.3235294118 1
    0.2941176471     0.2941176471     0.2941176471 1
    0.2647058824     0.2647058824     0.2647058824 1
    0.2352941176     0.2352941176     0.2352941176 1
    0.2058823529     0.2058823529     0.2058823529 1
    0.1764705882     0.1764705882     0.1764705882 1
    0.1470588235     0.1470588235     0.1470588235 1
    0.1176470588     0.1176470588     0.1176470588 1
    0.0882352941     0.0882352941     0.0882352941 1
    0.0588235294     0.0588235294     0.0588235294 1
    0.0294117647     0.0294117647     0.0294117647 1
    0.0000000000     0.0000000000     0.0000000000 1
    0.0000000000     0.0384615385     0.0384615385 1
    0.0000000000     0.0769230769     0.0769230769 1
    0.0000000000     0.1153846154     0.1153846154 1
    0.0000000000     0.1538461538     0.1538461538 1
    0.0000000000     0.1923076923     0.1923076923 1
    0.0000000000     0.2307692308     0.2307692308 1
    0.0000000000     0.2692307692     0.2692307692 1
    0.0000000000     0.3076923077     0.3076923077 1
    0.0000000000     0.3461538462     0.3461538462 1
    0.0000000000     0.3846153846     0.3846153846 1
    0.0000000000     0.4230769231     0.4230769231 1
    0.0000000000     0.4615384615     0.4615384615 1
    0.0000000000     0.5000000000     0.5000000000 1
    0.5000000000     0.0000000000     0.5000000000 1
    0.4615384615     0.0000000000     0.4615384615 1
    0.4230769231     0.0000000000     0.4230769231 1
    0.3846153846     0.0000000000     0.3846153846 1
    0.3461538462     0.0000000000     0.3461538462 1
    0.3076923077     0.0000000000     0.3076923077 1
    0.2692307692     0.0000000000     0.2692307692 1
    0.2307692308     0.0000000000     0.2307692308 1
    0.1923076923     0.0000000000     0.1923076923 1
    0.1538461538     0.0000000000     0.1538461538 1
    0.1153846154     0.0000000000     0.1153846154 1
    0.0769230769     0.0000000000     0.0769230769 1
    0.0384615385     0.0000000000     0.0384615385 1
    0.0000000000     0.0000000000     0.0000000000 1
    0.0384615385     0.0384615385     0.0000000000 1
    0.0769230769     0.0769230769     0.0000000000 1
    0.1153846154     0.1153846154     0.0000000000 1
    0.1538461538     0.1538461538     0.0000000000 1
    0.1923076923     0.1923076923     0.0000000000 1
    0.2307692308     0.2307692308     0.0000000000 1
    0.2692307692     0.2692307692     0.0000000000 1
    0.3076923077     0.3076923077     0.0000000000 1
    0.3461538462     0.3461538462     0.0000000000 1
    0.3846153846     0.3846153846     0.0000000000 1
    0.4230769231     0.4230769231     0.0000000000 1
    0.4615384615     0.4615384615     0.0000000000 1
    0.5000000000     0.5000000000     0.0000000000 1
    0.0000000000     0.0000000000     0.0000000000 1
   -0.0555555556     0.0000000000     0.0000000000 1
   -0.1111111111     0.0000000000     0.0000000000 1
   -0.1666666667     0.0000000000     0.0000000000 1
   -0.2222222222     0.0000000000     0.0000000000 1
   -0.2777777778     0.0000000000     0.0000000000 1
   -0.3333333333     0.0000000000     0.0000000000 1
   -0.3888888889     0.0000000000     0.0000000000 1
   -0.4444444444     0.0000000000     0.0000000000 1
   -0.5000000000     0.0000000000     0.0000000000 1
    0.0000000000    -0.5000000000     0.0000000000 1
    0.0000000000    -0.4444444444     0.0000000000 1
    0.0000000000    -0.3888888889     0.0000000000 1
    0.0000000000    -0.3333333333     0.0000000000 1
    0.0000000000    -0.2777777778     0.0000000000 1
    0.0000000000    -0.2222222222     0.0000000000 1
    0.0000000000    -0.1666666667     0.0000000000 1
    0.0000000000    -0.1111111111     0.0000000000 1
    0.0000000000    -0.0555555556     0.0000000000 1
    0.0000000000     0.0000000000     0.0000000000 1
    0.0000000000     0.0000000000    -0.0555555556 1
    0.0000000000     0.0000000000    -0.1111111111 1
    0.0000000000     0.0000000000    -0.1666666667 1
    0.0000000000     0.0000000000    -0.2222222222 1
    0.0000000000     0.0000000000    -0.2777777778 1
    0.0000000000     0.0000000000    -0.3333333333 1
    0.0000000000     0.0000000000    -0.3888888889 1
    0.0000000000     0.0000000000    -0.4444444444 1
    0.0000000000     0.0000000000    -0.5000000000 1
   -0.5000000000    -0.5000000000    -0.5000000000 1
   -0.4705882353    -0.4705882353    -0.4705882353 1
   -0.4411764706    -0.4411764706    -0.4411764706 1
   -0.4117647059    -0.4117647059    -0.4117647059 1
   -0.3823529412    -0.3823529412    -0.3823529412 1
   -0.3529411765    -0.3529411765    -0.3529411765 1
   -0.3235294118    -0.3235294118    -0.3235294118 1
   -0.2941176471    -0.2941176471    -0.2941176471 1
   -0.2647058824    -0.2647058824    -0.2647058824 1
   -0.2352941176    -0.2352941176    -0.2352941176 1
   -0.2058823529    -0.2058823529    -0.2058823529 1
   -0.1764705882    -0.1764705882    -0.1764705882 1
   -0.1470588235    -0.1470588235    -0.1470588235 1
   -0.1176470588    -0.1176470588    -0.1176470588 1
   -0.0882352941    -0.0882352941    -0.0882352941 1
   -0.0588235294    -0.0588235294    -0.0588235294 1
   -0.0294117647    -0.0294117647    -0.0294117647 1
    0.0000000000     0.0000000000     0.0000000000 1
    0.0000000000    -0.0384615385    -0.0384615385 1
    0.0000000000    -0.0769230769    -0.0769230769 1
    0.0000000000    -0.1153846154    -0.1153846154 1
    0.0000000000    -0.1538461538    -0.1538461538 1
    0.0000000000    -0.1923076923    -0.1923076923 1
    0.0000000000    -0.2307692308    -0.2307692308 1
    0.0000000000    -0.2692307692    -0.2692307692 1
    0.0000000000    -0.3076923077    -0.3076923077 1
    0.0000000000    -0.3461538462    -0.3461538462 1
    0.0000000000    -0.3846153846    -0.3846153846 1
    0.0000000000    -0.4230769231    -0.4230769231 1
    0.0000000000    -0.4615384615    -0.4615384615 1
    0.0000000000    -0.5000000000    -0.5000000000 1
   -0.5000000000     0.0000000000    -0.5000000000 1
   -0.4615384615     0.0000000000    -0.4615384615 1
   -0.4230769231     0.0000000000    -0.4230769231 1
   -0.3846153846     0.0000000000    -0.3846153846 1
   -0.3461538462     0.0000000000    -0.3461538462 1
   -0.3076923077     0.0000000000    -0.3076923077 1
   -0.2692307692     0.0000000000    -0.2692307692 1
   -0.2307692308     0.0000000000    -0.2307692308 1
   -0.1923076923     0.0000000000    -0.1923076923 1
   -0.1538461538     0.0000000000    -0.1538461538 1
   -0.1153846154     0.0000000000    -0.1153846154 1
   -0.0769230769     0.0000000000    -0.0769230769 1
   -0.0384615385     0.0000000000    -0.0384615385 1
    0.0000000000     0.0000000000     0.0000000000 1
   -0.0384615385    -0.0384615385     0.0000000000 1
   -0.0769230769    -0.0769230769     0.0000000000 1
   -0.1153846154    -0.1153846154     0.0000000000 1
   -0.1538461538    -0.1538461538     0.0000000000 1
   -0.1923076923    -0.1923076923     0.0000000000 1
   -0.2307692308    -0.2307692308     0.0000000000 1
   -0.2692307692    -0.2692307692     0.0000000000 1
   -0.3076923077    -0.3076923077     0.0000000000 1
   -0.3461538462    -0.3461538462     0.0000000000 1
   -0.3846153846    -0.3846153846     0.0000000000 1
   -0.4230769231    -0.4230769231     0.0000000000 1
   -0.4615384615    -0.4615384615     0.0000000000 1
   -0.5000000000    -0.5000000000     0.0000000000 1
