 &CONTROL
   calculation     = 'relax' 
   outdir          = './out/' 
   pseudo_dir      = './pseudo/' 
   prefix          = 'aiida' 
   etot_conv_thr   = 1d-07 
   forc_conv_thr   = 1.0d-04
 /
 &SYSTEM
   ibrav           = 0
   nat             = 44
   ntyp            = 4
   ecutwfc         = 90
   ecutrho         = 720
   nosym           = .false. 
   occupations     = 'fixed' 
 /
 &ELECTRONS
   electron_maxstep = 200
   conv_thr        = 1d-08
   mixing_beta     = 0.4
 /
 &IONS
   ion_dynamics    = 'bfgs' 
 /
 CELL_PARAMETERS angstrom 
    11.911249000    0.000000000    0.000000000 
     0.000000000   11.911249000    0.000000000 
     0.000000000    0.000000000   11.911249000 
ATOMIC_SPECIES
    C   12.01070  C.pbesol-n-kjpaw_psl.1.0.0.UPF 
    H    1.00794  H.pbesol-kjpaw_psl.0.1.UPF
    N   14.00670  N.pbesol-n-kjpaw_psl.0.1.UPF
    O   15.99940  O.pbesol-n-kjpaw_psl.0.1.UPF 
ATOMIC_POSITIONS crystal
H            0.7466160000       0.8635640000       0.7276420000 
H            0.6906180000       0.9000000000       0.6064120000 
H            0.8277150000       0.7250390000       0.6481370000 
H            0.8388810000       0.7375490000       0.4461430000 
H            0.6535940000       0.6326900000       0.7255430000 
H            0.7168120000       0.5594820000       0.6096020000 
H            0.5398360000       0.5637630000       0.5672050000 
H            0.7527440000       0.2951100000       0.4052580000 
H            0.5693040000       0.2682440000       0.3945950000 
H            0.6718120000       0.1604470000       0.1776580000 
H            0.4939970000       0.3194560000       0.1842900000 
H            0.6018790000       0.4247350000       0.2072100000 
H            0.4879520000       0.4353970000       0.4007240000 
H            0.3772170000       0.3946800000       0.3074510000 
H            0.7256270000       0.4060130000       0.3269280000 
H            0.3729350000       0.6493130000       0.1581800000 
H            0.3362470000       0.5070940000       0.1575930000 
H            0.1611190000       0.4183550000       0.7790220000 
H            0.3536260000       0.3223950000       0.7812050000 
H            0.2547280000       0.4864410000       0.6104420000 
H            0.3850250000       0.2098120000       0.6160670000 
H            0.2606880000       0.1554940000       0.6787810000 
H            0.2512850000       0.2450730000       0.5594820000 
H            0.1847100000       0.2974600000       0.8424070000 
C            0.7447690000       0.7383040000       0.6117850000 
C            0.7580330000       0.7541710000       0.4856020000 
C            0.6713930000       0.6344530000       0.6357960000 
C            0.6087630000       0.2811730000       0.3129920000 
C            0.6121210000       0.1722850000       0.2459960000 
C            0.5426910000       0.3666390000       0.2457450000 
C            0.4597440000       0.4338020000       0.3136640000 
C            0.4524400000       0.5525130000       0.2716860000 
C            0.2920030000       0.3303700000       0.7139570000 
C            0.3211350000       0.4357330000       0.6477170000 
C            0.2976280000       0.2277780000       0.6364680000 
N            0.6967470000       0.8381260000       0.6640050000 
N            0.7243680000       0.3213040000       0.3297830000 
N            0.3818340000       0.5710670000       0.1895790000 
N            0.1821070000       0.3370030000       0.7674360000 
O            0.6782770000       0.7856540000       0.4275050000 
O            0.5677090000       0.6386510000       0.5780350000 
O            0.5465530000       0.1000000000       0.2713510000 
O            0.5086050000       0.6265610000       0.3132440000 
O            0.4205370000       0.4634380000       0.6364680000     
K_POINTS automatic 
  3 3 3   0 0 0 
