   &CONTROL
   calculation     = 'scf' 
   outdir          = './out/' 
   pseudo_dir      = './pseudo/' 
   prefix          = 'aiida'
 /
 &SYSTEM
   ibrav           = 0
   nat             = 32
   ntyp            = 4
   ecutwfc         = 90
   ecutrho         = 720
   nosym           = .false. 
   occupations     = 'fixed' 
 /
 &ELECTRONS
   electron_maxstep = 200
   conv_thr        = 1.0d-07
   mixing_mode     = 'plain' 
   mixing_beta     = 0.4 
   diagonalization = 'david' 
 /
CELL_PARAMETERS angstrom 
    11.911249000    0.000000000    0.000000000 
     0.000000000   11.911249000    0.000000000 
     0.000000000    0.000000000   11.911249000 
ATOMIC_SPECIES
    C   12.01070  C.pbesol-n-kjpaw_psl.1.0.0.UPF 
    H    1.00794  H.pbesol-kjpaw_psl.0.1.UPF
    N   14.00670  N.pbesol-n-kjpaw_psl.0.1.UPF
    O   15.99940  O.pbesol-n-kjpaw_psl.0.1.UPF 
ATOMIC_POSITIONS crystal
H            0.6590510000       0.8635640000       0.7850250000 
H            0.6030540000       0.9000000000       0.6637950000 
H            0.7401510000       0.7250390000       0.7055200000 
H            0.7513170000       0.7375490000       0.5035260000 
H            0.5660300000       0.6326900000       0.7829260000 
H            0.6292480000       0.5594820000       0.6669850000 
H            0.4522720000       0.5637630000       0.6245880000 
H            0.6651800000       0.2951100000       0.4626400000 
H            0.4817400000       0.2682440000       0.4519780000 
H            0.5842480000       0.1604470000       0.2350400000 
H            0.4064330000       0.3194560000       0.2416730000 
H            0.5143140000       0.4247350000       0.2645920000 
H            0.4003880000       0.4353970000       0.4581070000 
H            0.2896530000       0.3946800000       0.3648340000 
H            0.6380630000       0.4060130000       0.3843110000 
H            0.2853710000       0.6493130000       0.2155630000 
H            0.2486830000       0.5070940000       0.2149750000 
C            0.6572040000       0.7383040000       0.6691680000 
C            0.6704690000       0.7541710000       0.5429850000 
C            0.5838280000       0.6344530000       0.6931790000 
C            0.5211980000       0.2811730000       0.3703750000 
C            0.5245570000       0.1722850000       0.3033790000 
C            0.4551260000       0.3666390000       0.3031270000 
C            0.3721800000       0.4338020000       0.3710460000 
C            0.3648760000       0.5525130000       0.3290690000 
N            0.6091830000       0.8381260000       0.7213870000 
N            0.6368040000       0.3213040000       0.3871650000 
N            0.2942700000       0.5710670000       0.2469620000 
O            0.5907130000       0.7856540000       0.4848880000 
O            0.4801450000       0.6386510000       0.6354180000 
O            0.4589880000       0.1000000000       0.3287330000 
O            0.4210410000       0.6265610000       0.3706270000
 
K_POINTS automatic 
  6 6 6   0 0 0 
