!   File created by MacMolPlt 7.7.2
 $CONTRL SCFTYP=UHF RUNTYP=OPTIMIZE DFTTYP=B3LYP MAXIT=99 MULT=1 $END
 $SYSTEM TIMLIM=525600 MEMORY=125000000 MEMDDI=125 $END
 $BASIS GBASIS=N21 NGAUSS=3 $END
 $SCF DIRSCF=.TRUE. $END
 $STATPT OPTTOL=0.0005 NSTEP=99 $END
 $DATA 
Title
C1
 N           7.0   7.4381481596   7.8830954102   8.6690148859
 C           6.0   7.9053272056   8.5084343381   7.4143272299
 C           6.0   6.8919800355   9.4357083903   6.7334000251
 O           8.0   5.8151910401   9.7859310497   7.2499960987
 C           6.0   8.3798578068   7.4075578440   6.4359068014
 O           8.0   7.2815149718   6.4659985793   6.1249410468
 H           1.0   6.9780283556   8.5491615537   9.2826452671
 H           1.0   6.8015997042   7.1170268995   8.4635394922
 H           1.0   8.7876162754   9.1349115706   7.6292102997
 H           1.0   7.1855668405   9.8114783470   5.7385260808
 H           1.0   9.1573782937   6.8156000599   6.9200689577
 H           1.0   8.7684298263   7.8519602948   5.5114895871
 H           1.0   6.7000210899   6.8609215496   5.4287654276
 N           7.0   5.5576408528   4.0473412680   6.3745745708
 C           6.0   5.5494045495   3.4123662198   5.0262220294
 C           6.0   6.7934517396   2.5495559184   4.8339946765
 O           8.0   6.7728541446   1.3440748176   4.5123137101
 C           6.0   5.5202245008   4.5252862483   3.9400959887
 C           6.0   4.3164667087   5.4916175052   4.1574422917
 C           6.0   4.6483063965   6.9177569914   3.7504468642
 N           7.0   3.7575683013   7.5708022307   2.9498240360
 O           8.0   5.7032492210   7.5045468740   4.1550505489
 H           1.0   5.4773766020   3.3885672805   7.1405015169
 H           1.0   4.6684623614   2.7689284387   4.9423131912
 H           1.0   7.7474435035   3.0652352307   5.0413313993
 H           1.0   5.4698548155   4.0620398543   2.9489438072
 H           1.0   6.4544291208   5.0940678481   3.9983899156
 H           1.0   4.1049577592   5.5060118011   5.2366586462
 H           1.0   3.4245033927   5.1270363069   3.6380699721
 H           1.0   6.3034815846   4.7343061056   6.5118566491
 H           1.0   3.9279791769   8.5383286857   2.7118045776
 H           1.0   2.9126856635   7.1313444886   2.6193344079
 $END
