!   File created by MacMolPlt 7.7.2
 $CONTRL SCFTYP=UHF RUNTYP=OPTIMIZE DFTTYP=B3LYP MAXIT=99 MULT=1 $END
 $SYSTEM TIMLIM=525600 MEMORY=125000000 MEMDDI=125 $END
 $BASIS GBASIS=N21 NGAUSS=6 $END
 $SCF DIRSCF=.TRUE. $END
 $STATPT OPTTOL=0.0005 NSTEP=99 $END
 $DATA 
Title
C1
 N           7.0   7.1903311444   7.8938522651   8.4509388605
 C           6.0   7.8897568745   8.3308836193   7.2325583281
 C           6.0   7.0194585205   9.2520750263   6.3702741284
 O           8.0   5.9624492948   9.7405789711   6.7686440603
 C           6.0   8.3482226456   7.0932105540   6.4343906207
 O           8.0   7.2211423423   6.2115750100   6.1557249952
 H           1.0   6.5061279632   8.6154098535   8.7144117893
 H           1.0   6.6785820300   7.0356606120   8.2051311301
 H           1.0   8.7959648160   8.9125973262   7.4784240963
 H           1.0   7.4421799677   9.4830727497   5.3743659358
 H           1.0   9.0503616995   6.5240309272   7.0469509341
 H           1.0   8.8505694983   7.4108952940   5.5096292849
 H           1.0   6.5968810721   6.7001587809   5.5064897292
 N           7.0   5.3596763554   4.0741470836   6.3324812674
 C           6.0   5.6422217875   3.4898164985   4.9961039670
 C           6.0   7.0563991256   2.9132458323   5.0112460315
 O           8.0   7.3751536861   1.7452728372   4.7877110536
 C           6.0   5.5724758303   4.6210076028   3.9352740751
 C           6.0   4.3146815072   5.5034259256   4.1355876079
 C           6.0   4.6301044063   6.9805798482   4.0035991897
 N           7.0   3.6955948517   7.7507755517   3.4042780762
 O           8.0   5.6906905620   7.4911572791   4.4575941825
 H           1.0   5.2639520747   3.3588696735   7.0583694441
 H           1.0   4.9238778462   2.6941852905   4.7795649982
 H           1.0   7.7838122214   3.6959789205   5.3151367550
 H           1.0   5.6095789521   4.1927659960   2.9288577119
 H           1.0   6.4553805409   5.2508786901   4.0781213653
 H           1.0   4.0206204807   5.3307431213   5.1868461779
 H           1.0   3.4944106188   5.2086573377   3.4760421558
 H           1.0   6.0729875528   4.7836935238   6.5721491013
 H           1.0   3.8438581890   8.7545787388   3.3654559556
 H           1.0   2.8434955423   7.3632192600   3.0186469908
 $END
