!   File created by MacMolPlt 7.7.2
 $CONTRL SCFTYP=UHF RUNTYP=OPTIMIZE DFTTYP=B3LYP MAXIT=99 MULT=1 $END
 $SYSTEM TIMLIM=525600 MEMORY=125000000 MEMDDI=125 $END
 $BASIS GBASIS=N21 NGAUSS=6 NDFUNC=1 NPFUNC=1 DIFFSP=.TRUE. DIFFS=.TRUE. $END
 $SCF DIRSCF=.TRUE. $END
 $STATPT OPTTOL=0.0001 NSTEP=99 $END
 $DATA 
Title
C1
 N           7.0   7.1925895142   8.3364474960   8.6772580179
 C           6.0   7.9072390856   8.6035272443   7.4098306218
 C           6.0   7.1834996840   9.5570186909   6.4516291351
 O           8.0   6.2040076765  10.2522619053   6.7791326609
 C           6.0   8.2608133675   7.2686874673   6.7169916948
 O           8.0   7.0473554401   6.4759192722   6.4178331364
 H           1.0   6.7660168675   9.1775068408   9.0565874133
 H           1.0   6.4796285040   7.6247243017   8.5350226849
 H           1.0   8.8682940035   9.0965725065   7.6356710306
 H           1.0   7.6101251693   9.6329012423   5.4371209435
 H           1.0   8.8486224927   6.6581057032   7.4037720093
 H           1.0   8.8318238249   7.4476706775   5.7966226591
 H           1.0   6.5542278296   6.8901975567   5.6669271164
 N           7.0   5.8984715236   3.7148844475   6.2963784657
 C           6.0   5.6772993650   3.3062759524   4.9062810886
 C           6.0   6.8447057529   2.4386715102   4.4186104108
 O           8.0   6.7372505738   1.5515658181   3.5502718144
 C           6.0   5.5560919514   4.5345078529   3.9451808077
 C           6.0   4.3471730239   5.4373247688   4.3281327429
 C           6.0   4.5898070788   6.8883140483   3.9385450316
 N           7.0   3.6590179544   7.5006688370   3.1519544911
 O           8.0   5.6199014561   7.5203675953   4.3370000250
 H           1.0   5.3445274810   3.2963660399   7.0226808626
 H           1.0   4.7668785022   2.6991917941   4.8329061163
 H           1.0   7.8089814710   2.6548517843   4.9071270876
 H           1.0   5.4556454720   4.1741839252   2.9151590559
 H           1.0   6.4782540681   5.1215788288   4.0140785303
 H           1.0   4.2427760650   5.4111159779   5.4218441741
 H           1.0   3.4225153466   5.0526528494   3.8862440270
 H           1.0   6.3782577832   4.5892232206   6.5003519596
 H           1.0   3.7817038648   8.4751705920   2.9116706958
 H           1.0   2.8374978069   7.0185432528   2.8221834886
 $END
