!   File created by MacMolPlt 7.7.2
 $CONTRL SCFTYP=UHF RUNTYP=HESSIAN DFTTYP=B3LYP MAXIT=200 MULT=1 $END
 $SYSTEM TIMLIM=525600 MEMORY=125000000 MEMDDI=125 $END
 $BASIS GBASIS=N21 NGAUSS=6 $END
 $SCF DIRSCF=.TRUE. $END
 $FORCE METHOD=SEMINUM VIBSIZ=0.010000 VIBANL=.TRUE. $END
 $DATA 
Title
C1
 N           7.0   7.1903791104   7.8989576025   8.4512589542
 C           6.0   7.8911926621   8.3328243009   7.2284636618
 C           6.0   7.0242376192   9.2636157190   6.3672859673
 O           8.0   5.9758514692   9.7689348798   6.7805218414
 C           6.0   8.3520385417   7.0889744724   6.4374326216
 O           8.0   7.2222805531   6.2030617238   6.1601842887
 H           1.0   6.5224035078   8.6327942913   8.7243604439
 H           1.0   6.6573450815   7.0548483730   8.1995991732
 H           1.0   8.7978295234   8.9115881743   7.4798470482
 H           1.0   7.4303177065   9.4877776088   5.3626629802
 H           1.0   9.0518438808   6.5215710628   7.0543446472
 H           1.0   8.8579032945   7.3992785256   5.5114471462
 H           1.0   6.5981938965   6.6937604500   5.5108424683
 N           7.0   5.3510070944   4.0594032999   6.3336578342
 C           6.0   5.6491541651   3.4869192215   4.9918208336
 C           6.0   7.0649230606   2.9089298567   5.0134909898
 O           8.0   7.3753855608   1.7339954796   4.7942398883
 C           6.0   5.5748113901   4.6231744166   3.9335530461
 C           6.0   4.3133918018   5.5039003198   4.1359008103
 C           6.0   4.6255796034   6.9852640138   4.0006806879
 N           7.0   3.6857752301   7.7573839131   3.4047712512
 O           8.0   5.6910246324   7.5012759399   4.4487584558
 H           1.0   5.2611736112   3.3342412166   7.0511862959
 H           1.0   4.9374816533   2.6867291320   4.7691744224
 H           1.0   7.8009057394   3.6824587928   5.3179176227
 H           1.0   5.6089309331   4.1949705506   2.9268200259
 H           1.0   6.4591177674   5.2527305023   4.0706711030
 H           1.0   4.0091326194   5.3303424727   5.1835111288
 H           1.0   3.4961398469   5.2084544708   3.4713488449
 H           1.0   6.0613580107   4.7676812897   6.5867074324
 H           1.0   3.8322444514   8.7614174955   3.3645837595
 H           1.0   2.8316459818   7.3697404323   3.0239543247
 $END
